p cnf 132 192
-9 28 -18 37 0
-9 28 -18 -37 0
9 19 2 38 0
9 19 2 -38 0
22 -14 -26 39 0
22 -14 -26 -39 0
-29 -8 -35 40 0
-29 -8 -35 -40 0
26 22 14 41 0
26 22 14 -41 0
30 28 1 42 0
30 28 1 -42 0
-7 -35 -5 43 0
-7 -35 -5 -43 0
30 -1 -28 44 0
30 -1 -28 -44 0
19 -9 -2 45 0
19 -9 -2 -45 0
-30 -16 -25 46 0
-30 -16 -25 -46 0
-33 27 36 47 0
-33 27 36 -47 0
34 13 25 48 0
34 13 25 -48 0
-16 2 23 49 0
-16 2 23 -49 0
-4 6 -18 50 0
-4 6 -18 -50 0
-1 -30 28 51 0
-1 -30 28 -51 0
20 21 15 52 0
20 21 15 -52 0
-32 -11 29 53 0
-32 -11 29 -53 0
6 18 4 54 0
6 18 4 -54 0
-5 -11 -31 55 0
-5 -11 -31 -55 0
32 29 11 56 0
32 29 11 -56 0
22 17 33 57 0
22 17 33 -57 0
23 12 -31 58 0
23 12 -31 -58 0
31 5 -11 59 0
31 5 -11 -59 0
9 -19 -2 60 0
9 -19 -2 -60 0
-34 10 -8 61 0
-34 10 -8 -61 0
-20 -12 27 62 0
-20 -12 27 -62 0
17 -22 -33 63 0
17 -22 -33 -63 0
32 -29 -11 64 0
32 -29 -11 -64 0
21 -20 -15 65 0
21 -20 -15 -65 0
1 32 -17 66 0
1 32 -17 -66 0
18 28 9 67 0
18 28 9 -67 0
25 -30 16 68 0
25 -30 16 -68 0
-24 -4 13 69 0
-24 -4 13 -69 0
3 -15 6 70 0
3 -15 6 -70 0
-16 25 30 71 0
-16 25 30 -71 0
20 -12 -27 72 0
20 -12 -27 -72 0
-21 20 -15 73 0
-21 20 -15 -73 0
-6 -4 18 74 0
-6 -4 18 -74 0
10 -21 14 75 0
10 -21 14 -75 0
24 -3 -26 76 0
24 -3 -26 -76 0
3 15 -6 77 0
3 15 -6 -77 0
30 16 -25 78 0
30 16 -25 -78 0
34 -8 -10 79 0
34 -8 -10 -79 0
-10 -14 -21 80 0
-10 -14 -21 -80 0
27 20 12 81 0
27 20 12 -81 0
17 -32 1 82 0
17 -32 1 -82 0
-4 -13 24 83 0
-4 -13 24 -83 0
29 -35 8 84 0
29 -35 8 -84 0
-13 -25 34 85 0
-13 -25 34 -85 0
11 5 -31 86 0
11 5 -31 -86 0
-17 -22 33 87 0
-17 -22 33 -87 0
4 -6 -18 88 0
4 -6 -18 -88 0
-20 12 -27 89 0
-20 12 -27 -89 0
-18 -28 9 90 0
-18 -28 9 -90 0
-2 -23 -16 91 0
-2 -23 -16 -91 0
8 -34 -10 92 0
8 -34 -10 -92 0
26 -24 -3 93 0
26 -24 -3 -93 0
36 7 -19 94 0
36 7 -19 -94 0
-6 -15 -3 95 0
-6 -15 -3 -95 0
-35 5 7 96 0
-35 5 7 -96 0
33 27 -36 97 0
33 27 -36 -97 0
-31 -12 -23 98 0
-31 -12 -23 -98 0
3 -26 -24 99 0
3 -26 -24 -99 0
19 36 -7 100 0
19 36 -7 -100 0
25 -13 -34 101 0
25 -13 -34 -101 0
36 -27 33 102 0
36 -27 33 -102 0
-32 11 -29 103 0
-32 11 -29 -103 0
31 -23 12 104 0
31 -23 12 -104 0
7 19 -36 105 0
7 19 -36 -105 0
3 26 24 106 0
3 26 24 -106 0
32 -1 17 107 0
32 -1 17 -107 0
-7 5 35 108 0
-7 5 35 -108 0
13 4 24 109 0
13 4 24 -109 0
2 -23 16 110 0
2 -23 16 -110 0
2 -19 -9 111 0
2 -19 -9 -111 0
22 -17 -33 112 0
22 -17 -33 -112 0
-22 14 -26 113 0
-22 14 -26 -113 0
-32 -1 -17 114 0
-32 -1 -17 -114 0
35 7 -5 115 0
35 7 -5 -115 0
-3 15 6 116 0
-3 15 6 -116 0
-25 -34 13 117 0
-25 -34 13 -117 0
-27 -33 -36 118 0
-27 -33 -36 -118 0
-22 -14 26 119 0
-22 -14 26 -119 0
-7 -36 -19 120 0
-7 -36 -19 -120 0
16 23 -2 121 0
16 23 -2 -121 0
8 34 10 122 0
8 34 10 -122 0
4 -13 -24 123 0
4 -13 -24 -123 0
-30 1 -28 124 0
-30 1 -28 -124 0
11 -5 31 125 0
11 -5 31 -125 0
-9 18 -28 126 0
-9 18 -28 -126 0
21 10 -14 127 0
21 10 -14 -127 0
23 -12 31 128 0
23 -12 31 -128 0
14 21 -10 129 0
14 21 -10 -129 0
8 35 -29 130 0
8 35 -29 -130 0
29 -8 35 131 0
29 -8 35 -131 0
-21 -20 15 132 0
-21 -20 15 -132 0

